; benchmark generated from python API
(set-info :status unknown)
(declare-datatypes ((IntState 0)) (((Mk1 (val1 Int)) (Mk2 (val2 Int)))))
 (declare-fun c_main_~i~6 () Int)
(declare-fun c_main_~j~6 () Int)
(declare-fun c_main_~k~6 () Int)
(assert
 (let (($x67 (<= c_main_~j~6 (+ (* 2 c_main_~i~6) 1))))
 (let (($x8 (<= c_main_~j~6 (+ (* 2 c_main_~i~6) 2))))
 (let (($x79 (<= c_main_~i~6 3)))
 (let ((?x35 (* 2 c_main_~i~6)))
 (let (($x58 (<= c_main_~j~6 ?x35)))
 (let (($x112 (exists ((main_~i~6_st IntState) (val!6 Int) )(let ((?x56 (val2 main_~i~6_st)))
 (let (($x96 (<= ?x56 3)))
 (let (($x80 (and (<= c_main_~j~6 (+ (* 2 ?x56) 2)) $x96 (<= ?x56 c_main_~k~6))))
 (let (($x52 (not (= main_~i~6_st (Mk1 val!6)))))
 (and $x52 $x80))))))
 ))
 (let (($x86 (<= c_main_~i~6 2)))
 (let (($x120 (exists ((v_nnf_44 Int) )(let (($x70 (<= v_nnf_44 3)))
 (let (($x45 (<= c_main_~j~6 (+ (* 2 v_nnf_44) 2))))
 (and (<= (+ v_nnf_44 1) c_main_~k~6) $x45 $x70))))
 ))
 (let (($x72 (<= c_main_~i~6 1)))
 (and (and $x72 $x86 $x120 $x58 $x79 $x8 $x67) (not (and $x86 $x112 $x58 $x79 $x8 $x67)))))))))))))
(check-sat)
